14889 : 495 1990 
18050 : 9783 17523 
17523 : 18050 495 
15986 : 16033 9783 
16033 : 18766 15986 
18766 : 10264 16033 
7670 : 3160 
11459 : 21536 10264 
9329 : 7858 14872 
10264 : 11459 18766 
8669 : 21536 1604 7781 
9783 : 15986 18050 
21325 : 11879 7781 
1990 : 14889 
21536 : 11459 8669 
11879 : 7858 21325 
1604 : 8669 
7781 : 21325 8669 
14872 : 9329 7749 
7749 : 14872 21375 
7858 : 9329 11879 
3160 : 21375 7670 
495 : 17523 14889 
21375 : 7749 3160 
7670 1990 11459 1604 9783 9329 
